20 965
525 7 482 7 394 7 212 9 29 11 822 15 623 21
525 7 482 7 394 7 212 9 29 11 822 15 623 21
525 7 482 7 394 7 212 9 29 11 822 15 623 21
525 7 482 7 394 7 212 9 29 11 822 15 623 21
525 7 445 7 264 7 63 9 889 11 721 18
525 7 479 7 356 7 109 9 864 11 699 15 557 22
525 7 482 7 394 7 212 9 29 11 822 15 623 21
535 8 492 8 398 9 231 10 69 14 899 50
535 8 492 8 398 9 231 10 69 14 899 50
525 7 505 7 381 7 219 9 28 11 852 15 669 21
520 7 440 7 284 7 102 12
520 7 440 7 284 7 102 12
525 7 482 7 394 7 212 9 29 11 822 15 623 21
525 7 445 7 263 7 62 9 888 11 718 18
533 7
533 7
533 7
533 7
533 7
533 7
